problems/07-grid4x4/07-grid4x4.gr
p tw 16 24
1 2
2 3
3 4
5 6
6 7
7 8
9 10
10 11
11 12
13 14
14 15
15 16
1 5
5 9
9 13
2 6
6 10
10 14
3 7
7 11
11 15
4 8
8 12
12 16
