problems/07-grid4x4/07-grid4x4.td
c read Graph
c width = 7
c time = 16 ms
c width = 4
c time = 24 ms
c width = 4
c time = 4882 ms
s td 12 5 16
b 1 1 2 5
b 2 2 3 5 6
b 3 3 5 6 9
b 4 3 7 8 12
b 5 9 10 14 15
b 6 3 6 7 9 12
b 7 6 7 9 10 12
b 8 7 9 10 11 12
b 9 9 10 11 12 15
b 10 12 15 16
b 11 9 13 14
b 12 3 4 8
1 2
2 3
3 6
4 12
4 6
5 11
5 9
6 7
7 8
8 9
9 10
